networks/zoo_74_267/zoo_74_267-lower.txt
Number of groups: 57
Flow 2: {1 35 0} {35 32 0} 
Flow 6: {2 35 0} 
Flow 9: {3 34 0} 
Flow 10: {4 35 0} 
Flow 16: {5 35 0} 
Flow 18: {6 35 0} {35 30 0} {30 31 0} 
Flow 21: {8 35 0} 
Flow 28: {9 30 0} 
Flow 33: {10 30 0} 
Flow 36: {11 32 0} {32 30 0} 
Flow 42: {12 32 0} 
Flow 44: {13 33 0} {33 30 0} {30 67 0} 
Flow 50: {14 33 0} 
Flow 55: {15 33 0} {33 35 0} 
Flow 57: {16 33 0} 
Flow 59: {17 35 0} 
Flow 62: {18 32 0} {32 35 0} {35 72 0} 
Flow 66: {19 30 0} {30 33 0} {33 70 0} 
Flow 72: {20 30 0} {30 32 0} {32 69 0} 
Flow 76: {21 30 0} 
Flow 78: {22 30 0} 
Flow 84: {23 30 0} {30 34 0} {34 71 0} 
Flow 89: {24 30 0} 
Flow 92: {25 30 0} 
Flow 95: {26 30 0} 
Flow 99: {27 30 0} 
Flow 101: {28 34 0} {34 30 0} 
Flow 106: {29 34 0} 
Flow 113: {35 8 0} {8 45 0} 
Flow 113: {30 35 0} Flow 114: {30 9 0} {9 46 0} 
Flow 115: {30 10 0} {10 47 0} 
Flow 120: {33 15 0} {15 52 0} 
Flow 123: {32 18 0} {18 55 0} 
Flow 124: {30 20 0} {20 57 0} 
Flow 125: {30 21 0} {21 58 0} 
Flow 126: {30 22 0} {22 59 0} 
Flow 127: {30 23 0} {23 60 0} 
Flow 128: {30 24 0} {24 61 0} 
Flow 129: {30 25 0} {25 62 0} 
Flow 130: {30 26 0} {26 63 0} 
Flow 131: {30 27 0} {27 64 0} 
Flow 152: {33 16 0} {16 53 0} 
Flow 171: {31 37 0} {37 74 0} 
Flow 178: {32 11 0} {11 48 0} 
Flow 179: {32 12 0} {12 49 0} 
Flow 200: {33 14 0} {14 51 0} 
Flow 208: {31 36 0} {36 73 0} 
Flow 209: {35 5 0} {5 42 0} 
Flow 209: {34 35 0} Flow 216: {35 17 0} {17 54 0} 
Flow 222: {34 28 0} {28 65 0} 
Flow 223: {34 29 0} {29 66 0} 
Flow 231: {35 1 0} {1 38 0} 
Flow 232: {35 34 0} {34 3 0} {3 40 0} 
Flow 234: {35 6 0} {6 43 0} 
Flow 239: {35 33 0} {33 13 0} {13 50 0} 
Flow 260: {36 31 0} {31 68 0} 
Flow 266: {37 31 0} {31 30 0} 
Time taken running everything: 1 seconds
