networks/zoo_74_267/zoo_74_267-lower.sol
<?xml version = "1.0" encoding="UTF-8" standalone="yes"?>
<CPLEXSolution version="1.2">
 <header
   problemName="networks/zoo_74_267/zoo_74_267-lower.lp"
   solutionName="incumbent"
   solutionIndex="-1"
   objectiveValue="33"
   solutionTypeValue="3"
   solutionTypeString="primal"
   solutionStatusValue="101"
   solutionStatusString="integer optimal solution"
   solutionMethodString="mip"
   primalFeasible="1"
   dualFeasible="1"
   MIPNodes="0"
   MIPIterations="0"
   writeLevel="3"/>
 <quality
   epInt="1.0000000000000001e-05"
   epRHS="9.9999999999999995e-07"
   maxIntInfeas="0"
   maxPrimalInfeas="0"
   maxX="1"
   maxSlack="1"/>
 <variables>
  <variable name="Y(1,30)" index="28" value="1"/>
  <variable name="Y(2,32)" index="99" value="1"/>
  <variable name="Y(3,35)" index="171" value="1"/>
  <variable name="Y(5,31)" index="305" value="1"/>
  <variable name="Y(7,34)" index="446" value="1"/>
  <variable name="Y(66,33)" index="4516" value="1"/>
  <variable name="Y(69,36)" index="4726" value="1"/>
  <variable name="Y(109,1)" index="7452" value="1"/>
  <variable name="Y(110,3)" index="7523" value="1"/>
  <variable name="Y(111,5)" index="7594" value="1"/>
  <variable name="Y(112,6)" index="7664" value="1"/>
  <variable name="Y(113,8)" index="7734" value="1"/>
  <variable name="Y(114,9)" index="7804" value="1"/>
  <variable name="Y(115,10)" index="7874" value="1"/>
  <variable name="Y(116,11)" index="7944" value="1"/>
  <variable name="Y(117,12)" index="8014" value="1"/>
  <variable name="Y(118,13)" index="8084" value="1"/>
  <variable name="Y(119,14)" index="8154" value="1"/>
  <variable name="Y(120,15)" index="8224" value="1"/>
  <variable name="Y(121,16)" index="8294" value="1"/>
  <variable name="Y(122,17)" index="8364" value="1"/>
  <variable name="Y(123,18)" index="8434" value="1"/>
  <variable name="Y(124,20)" index="8505" value="1"/>
  <variable name="Y(125,21)" index="8575" value="1"/>
  <variable name="Y(126,22)" index="8645" value="1"/>
  <variable name="Y(127,23)" index="8715" value="1"/>
  <variable name="Y(128,24)" index="8785" value="1"/>
  <variable name="Y(129,25)" index="8855" value="1"/>
  <variable name="Y(130,26)" index="8925" value="1"/>
  <variable name="Y(131,27)" index="8995" value="1"/>
  <variable name="Y(132,28)" index="9065" value="1"/>
  <variable name="Y(133,29)" index="9135" value="1"/>
  <variable name="Y(140,37)" index="9626" value="1"/>
  <variable name="X(1,35,1)" index="18423" value="1"/>
  <variable name="X(1,38,109)" index="18798" value="1"/>
  <variable name="X(2,35,4)" index="18960" value="1"/>
  <variable name="X(3,34,9)" index="19232" value="1"/>
  <variable name="X(3,40,110)" index="19600" value="1"/>
  <variable name="X(4,35,10)" index="19767" value="1"/>
  <variable name="X(5,35,14)" index="20038" value="1"/>
  <variable name="X(5,42,111)" index="20402" value="1"/>
  <variable name="X(6,35,17)" index="20575" value="1"/>
  <variable name="X(6,43,112)" index="20937" value="1"/>
  <variable name="X(8,35,21)" index="21113" value="1"/>
  <variable name="X(8,45,113)" index="21472" value="1"/>
  <variable name="X(9,30,25)" index="21651" value="1"/>
  <variable name="X(9,46,114)" index="22007" value="1"/>
  <variable name="X(10,30,30)" index="22190" value="1"/>
  <variable name="X(10,47,115)" index="22542" value="1"/>
  <variable name="X(11,32,35)" index="22729" value="1"/>
  <variable name="X(11,48,116)" index="23077" value="1"/>
  <variable name="X(12,32,40)" index="23268" value="1"/>
  <variable name="X(12,49,117)" index="23612" value="1"/>
  <variable name="X(13,33,44)" index="23806" value="1"/>
  <variable name="X(13,50,118)" index="24147" value="1"/>
  <variable name="X(14,33,48)" index="24344" value="1"/>
  <variable name="X(14,51,119)" index="24682" value="1"/>
  <variable name="X(15,33,52)" index="24882" value="1"/>
  <variable name="X(15,52,120)" index="25217" value="1"/>
  <variable name="X(16,33,56)" index="25420" value="1"/>
  <variable name="X(16,53,121)" index="25752" value="1"/>
  <variable name="X(17,35,59)" index="25957" value="1"/>
  <variable name="X(17,54,122)" index="26287" value="1"/>
  <variable name="X(18,32,60)" index="26492" value="1"/>
  <variable name="X(18,55,123)" index="26822" value="1"/>
  <variable name="X(19,30,63)" index="27029" value="1"/>
  <variable name="X(20,30,70)" index="27303" value="1"/>
  <variable name="X(20,57,124)" index="27624" value="1"/>
  <variable name="X(21,30,75)" index="27842" value="1"/>
  <variable name="X(21,58,125)" index="28159" value="1"/>
  <variable name="X(22,30,78)" index="28379" value="1"/>
  <variable name="X(22,59,126)" index="28694" value="1"/>
  <variable name="X(23,30,81)" index="28916" value="1"/>
  <variable name="X(23,60,127)" index="29229" value="1"/>
  <variable name="X(24,30,86)" index="29455" value="1"/>
  <variable name="X(24,61,128)" index="29764" value="1"/>
  <variable name="X(25,30,90)" index="29993" value="1"/>
  <variable name="X(25,62,129)" index="30299" value="1"/>
  <variable name="X(26,30,95)" index="30532" value="1"/>
  <variable name="X(26,63,130)" index="30834" value="1"/>
  <variable name="X(27,30,96)" index="31067" value="1"/>
  <variable name="X(27,64,131)" index="31369" value="1"/>
  <variable name="X(28,34,101)" index="31606" value="1"/>
  <variable name="X(28,65,132)" index="31904" value="1"/>
  <variable name="X(29,34,106)" index="32145" value="1"/>
  <variable name="X(29,66,133)" index="32439" value="1"/>
  <variable name="X(30,9,114)" index="32687" value="1"/>
  <variable name="X(30,10,115)" index="32955" value="1"/>
  <variable name="X(30,20,124)" index="33231" value="1"/>
  <variable name="X(30,21,125)" index="33499" value="1"/>
  <variable name="X(30,22,126)" index="33767" value="1"/>
  <variable name="X(30,23,127)" index="34035" value="1"/>
  <variable name="X(30,24,128)" index="34303" value="1"/>
  <variable name="X(30,25,129)" index="34571" value="1"/>
  <variable name="X(30,26,130)" index="34839" value="1"/>
  <variable name="X(30,27,131)" index="35107" value="1"/>
  <variable name="X(30,31,5)" index="35248" value="1"/>
  <variable name="X(30,32,27)" index="35537" value="1"/>
  <variable name="X(30,33,66)" index="35843" value="1"/>
  <variable name="X(30,34,28)" index="36072" value="1"/>
  <variable name="X(30,35,29)" index="36340" value="1"/>
  <variable name="X(30,67,1)" index="36579" value="1"/>
  <variable name="X(31,30,141)" index="36986" value="1"/>
  <variable name="X(31,36,69)" index="37181" value="1"/>
  <variable name="X(31,37,140)" index="37519" value="1"/>
  <variable name="X(31,68,5)" index="37651" value="1"/>
  <variable name="X(32,11,116)" index="38029" value="1"/>
  <variable name="X(32,12,117)" index="38297" value="1"/>
  <variable name="X(32,18,123)" index="38570" value="1"/>
  <variable name="X(32,30,35)" index="38749" value="1"/>
  <variable name="X(32,35,39)" index="39020" value="1"/>
  <variable name="X(32,69,2)" index="39250" value="1"/>
  <variable name="X(33,13,118)" index="39633" value="1"/>
  <variable name="X(33,14,119)" index="39901" value="1"/>
  <variable name="X(33,15,120)" index="40169" value="1"/>
  <variable name="X(33,16,121)" index="40437" value="1"/>
  <variable name="X(33,30,44)" index="40627" value="1"/>
  <variable name="X(33,35,47)" index="40897" value="1"/>
  <variable name="X(33,70,66)" index="41183" value="1"/>
  <variable name="X(34,3,110)" index="41494" value="1"/>
  <variable name="X(34,28,132)" index="41783" value="1"/>
  <variable name="X(34,29,133)" index="42051" value="1"/>
  <variable name="X(34,30,9)" index="42194" value="1"/>
  <variable name="X(34,35,105)" index="42557" value="1"/>
  <variable name="X(34,71,7)" index="42726" value="1"/>
  <variable name="X(35,1,109)" index="43095" value="1"/>
  <variable name="X(35,5,111)" index="43364" value="1"/>
  <variable name="X(35,6,112)" index="43632" value="1"/>
  <variable name="X(35,8,113)" index="43900" value="1"/>
  <variable name="X(35,17,122)" index="44176" value="1"/>
  <variable name="X(35,30,1)" index="44322" value="1"/>
  <variable name="X(35,32,2)" index="44590" value="1"/>
  <variable name="X(35,33,239)" index="45094" value="1"/>
  <variable name="X(35,34,7)" index="45129" value="1"/>
  <variable name="X(35,72,3)" index="45392" value="1"/>
  <variable name="X(36,31,259)" index="45915" value="1"/>
  <variable name="X(36,73,69)" index="45992" value="1"/>
  <variable name="X(37,31,264)" index="46454" value="1"/>
  <variable name="X(37,74,140)" index="46597" value="1"/>
 </variables>
</CPLEXSolution>
